gen	cost
1	20912
2	20856
3	20752
4	20648
5	20564
6	20517
7	20331
8	20234
9	20185
10	20022
11	19867
12	19790
13	19659
14	19586
15	19514
16	19457
17	19419
18	19397
19	19340
20	19236
21	19070
22	19063
23	18994
24	18958
25	18800
26	18763
27	18737
28	18687
29	18622
30	18607
31	18566
32	18534
33	18487
34	18394
35	18353
36	18319
37	18270
38	18233
39	18220
40	18157
41	18122
42	18107
43	18055
44	18020
45	17985
46	17954
47	17914
48	17872
49	17779
50	17771

